424 5
10 10 10 10 10 

0 0 0 0 0 0 5 2 14 26 38 50 
0 0 0 0 0 0 1 3 
2 0 0 0 1 0 1 4 
2 0 0 0 4 0 2 12 5 
9 0 0 0 3 0 4 11 10 6 48 
10 0 0 0 2 0 1 7 
1 0 0 0 2 0 1 8 
9 0 0 0 1 0 1 9 
3 0 0 0 1 0 1 13 
6 0 0 0 5 0 1 13 
8 0 0 0 2 0 1 13 
8 0 0 0 4 0 1 13 
0 0 0 0 0 0 1 62 
0 0 0 0 0 0 1 15 
7 0 0 1 0 0 2 18 16 
3 0 0 1 0 0 1 17 
4 0 0 2 0 0 2 22 19 
7 0 0 2 0 0 4 24 22 21 382 
2 0 0 3 0 0 2 24 20 
8 0 0 1 0 0 1 21 
2 0 0 3 0 0 1 23 
10 0 0 2 0 0 1 23 
9 0 0 7 0 0 1 25 
5 0 0 3 0 0 1 25 
0 0 0 0 0 0 1 62 
0 0 0 0 0 0 1 27 
9 0 0 0 1 0 2 31 28 
5 0 0 0 1 0 2 29 402 
4 0 0 0 2 0 2 36 30 
10 0 0 0 2 0 1 32 
8 0 0 0 4 0 1 32 
9 0 0 0 2 0 1 33 
10 0 0 0 3 0 2 35 34 
2 0 0 0 4 0 1 37 
4 0 0 0 1 0 1 37 
1 0 0 0 5 0 1 37 
0 0 0 0 0 0 1 62 
0 0 0 0 0 0 2 39 59 
8 0 0 0 0 1 1 40 
1 0 0 0 0 1 1 41 
4 0 0 0 0 5 2 44 42 
4 0 0 0 0 3 1 43 
10 0 0 0 0 3 2 46 45 
3 0 0 0 0 2 2 46 45 
7 0 0 0 0 3 2 48 47 
2 0 0 0 0 3 1 47 
7 0 0 0 0 2 1 49 
5 0 0 0 0 2 1 49 
0 0 0 0 0 0 1 62 
0 0 0 0 0 0 2 51 52 
4 0 0 1 0 0 2 55 53 
4 0 0 3 0 0 1 53 
6 0 0 3 0 0 2 60 54 
6 0 0 2 0 0 2 56 418 
6 0 0 1 0 0 1 56 
7 0 0 4 0 0 1 57 
6 0 0 3 0 0 1 58 
5 0 0 4 0 0 1 59 
8 0 0 3 0 0 1 61 
5 0 0 1 0 0 1 61 
0 0 0 0 0 0 1 62 
0 0 0 0 0 0 5 63 75 87 99 111 
0 0 0 0 0 0 2 64 66 
1 0 0 0 0 1 2 69 65 
5 0 0 0 0 2 1 67 
6 0 0 0 0 3 2 71 70 
6 0 0 0 0 2 2 68 112 
3 0 0 0 0 2 1 70 
5 0 0 0 0 4 1 70 
4 0 0 0 0 3 1 72 
4 0 0 0 0 2 1 72 
1 0 0 0 0 4 1 73 
2 0 0 0 0 2 1 74 
0 0 0 0 0 0 1 123 
0 0 0 0 0 0 3 76 77 85 
4 0 0 1 0 0 2 84 78 
2 0 0 2 0 0 1 78 
5 0 0 2 0 0 1 79 
10 0 0 5 0 0 1 80 
4 0 0 2 0 0 1 81 
10 0 0 3 0 0 1 82 
9 0 0 1 0 0 1 83 
10 0 0 2 0 0 1 86 
2 0 0 2 0 0 1 86 
5 0 0 5 0 0 1 86 
0 0 0 0 0 0 1 123 
0 0 0 0 0 0 2 88 93 
4 0 1 0 0 0 1 89 
2 0 2 0 0 0 3 97 95 90 
10 0 2 0 0 0 1 91 
4 0 3 0 0 0 1 92 
1 0 6 0 0 0 1 94 
1 0 2 0 0 0 1 94 
4 0 2 0 0 0 1 96 
5 0 2 0 0 0 1 96 
3 0 3 0 0 0 1 98 
2 0 2 0 0 0 1 98 
0 0 0 0 0 0 1 123 
0 0 0 0 0 0 3 100 103 105 
10 0 1 0 0 0 1 101 
6 0 3 0 0 0 2 109 102 
10 0 5 0 0 0 1 104 
7 0 5 0 0 0 2 109 107 
10 0 1 0 0 0 1 106 
9 0 3 0 0 0 1 106 
5 0 2 0 0 0 1 107 
10 0 3 0 0 0 1 108 
3 0 1 0 0 0 1 110 
3 0 1 0 0 0 1 110 
0 0 0 0 0 0 1 123 
0 0 0 0 0 0 2 112 113 
4 0 0 0 1 0 2 115 114 
3 0 0 0 3 0 2 115 114 
4 0 0 0 1 0 2 121 116 
4 0 0 0 2 0 1 116 
5 0 0 0 3 0 1 117 
9 0 0 0 3 0 1 118 
6 0 0 0 3 0 1 119 
7 0 0 0 6 0 1 120 
6 0 0 0 2 0 1 122 
4 0 0 0 1 0 1 122 
0 0 0 0 0 0 1 123 
0 0 0 0 0 0 5 124 156 188 200 232 
0 0 0 0 0 0 2 125 154 
3 1 1 1 0 0 1 126 
1 3 2 2 0 0 1 127 
5 3 3 2 0 0 1 128 
3 5 2 2 0 0 1 129 
2 3 5 3 0 0 2 153 130 
5 1 2 1 0 0 1 131 
7 3 2 5 0 0 6 152 151 150 149 146 132 
10 5 2 2 0 0 1 133 
10 5 2 1 0 0 1 134 
9 2 3 1 0 0 1 135 
6 3 6 4 0 0 1 136 
1 2 4 3 0 0 2 148 137 
5 3 1 4 0 0 1 138 
9 1 1 2 0 0 1 139 
8 2 3 3 0 0 1 140 
4 4 3 3 0 0 1 141 
6 1 3 2 0 0 1 142 
6 3 2 3 0 0 1 143 
6 1 3 3 0 0 1 144 
8 2 1 1 0 0 1 145 
10 3 1 2 0 0 1 147 
5 2 2 1 0 0 1 147 
6 2 1 3 0 0 1 155 
5 3 4 2 0 0 1 155 
6 2 5 2 0 0 1 155 
5 2 5 4 0 0 1 155 
2 3 2 2 0 0 1 155 
10 1 1 3 0 0 1 155 
1 2 1 4 0 0 1 155 
8 2 2 4 0 0 1 155 
0 0 0 0 0 0 1 424 
0 0 0 0 0 0 2 157 186 
3 0 1 1 0 1 1 158 
7 0 3 1 0 2 2 185 159 
5 0 3 3 0 2 2 184 160 
5 0 3 2 0 4 2 183 161 
9 0 4 1 0 2 2 182 162 
7 0 2 2 0 4 3 181 180 163 
7 0 2 3 0 3 1 164 
2 0 4 6 0 5 1 165 
4 0 1 4 0 4 1 166 
5 0 3 2 0 1 1 167 
5 0 1 3 0 1 1 168 
3 0 1 3 0 1 2 179 169 
2 0 4 1 0 2 1 170 
8 0 5 3 0 1 1 171 
8 0 1 2 0 2 1 172 
10 0 2 3 0 5 1 173 
4 0 1 2 0 4 1 174 
7 0 2 1 0 3 1 175 
10 0 2 3 0 2 1 176 
3 0 1 4 0 2 1 177 
2 0 3 1 0 5 1 178 
4 0 5 4 0 2 1 187 
1 0 3 2 0 2 1 187 
9 0 1 3 0 1 1 187 
1 0 2 1 0 3 1 187 
8 0 3 1 0 4 1 187 
3 0 2 4 0 2 1 187 
9 0 4 3 0 2 1 187 
3 0 2 2 0 2 1 187 
10 0 4 4 0 1 1 187 
0 0 0 0 0 0 1 424 
0 0 0 0 0 0 3 189 195 196 
8 1 0 0 0 0 1 190 
1 4 0 0 0 0 2 198 191 
2 2 0 0 0 0 1 192 
7 5 0 0 0 0 1 193 
1 3 0 0 0 0 1 194 
2 2 0 0 0 0 1 197 
7 2 0 0 0 0 1 198 
1 1 0 0 0 0 1 197 
2 2 0 0 0 0 1 199 
6 3 0 0 0 0 1 199 
0 0 0 0 0 0 5 264 286 308 320 342 
0 0 0 0 0 0 2 201 230 
10 0 1 0 1 1 1 202 
8 0 3 0 4 3 1 203 
6 0 4 0 2 2 1 204 
8 0 4 0 1 3 1 205 
4 0 1 0 6 2 2 229 206 
8 0 2 0 2 2 1 207 
10 0 2 0 3 2 2 228 208 
5 0 2 0 5 1 4 227 226 214 209 
6 0 2 0 3 3 1 210 
10 0 3 0 1 3 2 217 211 
10 0 2 0 3 2 1 212 
2 0 5 0 2 3 1 213 
10 0 3 0 3 1 2 225 215 
2 0 3 0 3 4 2 225 218 
6 0 2 0 5 3 1 216 
6 0 3 0 1 3 1 218 
8 0 3 0 2 2 1 218 
5 0 3 0 2 4 1 219 
6 0 3 0 3 3 1 220 
3 0 3 0 1 4 1 221 
10 0 2 0 4 4 1 222 
1 0 2 0 2 1 1 223 
2 0 1 0 3 1 1 224 
1 0 4 0 1 2 1 231 
3 0 1 0 2 3 1 231 
3 0 1 0 3 3 1 231 
7 0 3 0 2 3 1 231 
1 0 4 0 1 1 1 231 
6 0 2 0 3 3 1 231 
9 0 1 0 1 3 1 231 
0 0 0 0 0 0 1 424 
0 0 0 0 0 0 3 233 261 262 
9 1 0 0 1 1 2 260 234 
5 5 0 0 3 3 1 235 
5 3 0 0 3 4 2 259 236 
4 1 0 0 2 2 1 237 
1 2 0 0 2 2 4 258 257 256 238 
2 1 0 0 1 3 1 239 
8 3 0 0 3 3 1 240 
5 2 0 0 4 4 1 241 
6 4 0 0 2 4 1 242 
10 1 0 0 4 2 1 243 
5 4 0 0 2 4 1 244 
6 2 0 0 1 2 2 255 245 
3 2 0 0 4 2 1 246 
5 5 0 0 2 2 1 247 
6 3 0 0 1 2 1 248 
10 2 0 0 3 4 1 249 
2 5 0 0 3 3 1 250 
5 1 0 0 4 1 1 251 
1 2 0 0 5 6 1 252 
6 3 0 0 2 4 1 253 
7 2 0 0 2 4 1 254 
7 2 0 0 3 1 1 263 
4 6 0 0 1 1 1 263 
7 2 0 0 3 3 1 263 
6 1 0 0 3 1 1 263 
7 1 0 0 1 1 1 263 
2 1 0 0 3 2 1 263 
10 4 0 0 3 1 1 263 
6 3 0 0 3 2 1 263 
9 1 0 0 1 1 1 263 
0 0 0 0 0 0 1 424 
0 0 0 0 0 0 2 265 274 
6 1 0 0 1 0 1 266 
8 3 0 0 2 0 1 267 
7 1 0 0 4 0 2 284 268 
7 4 0 0 2 0 2 272 269 
2 2 0 0 4 0 1 270 
4 1 0 0 4 0 1 271 
3 3 0 0 5 0 2 281 273 
3 4 0 0 4 0 2 281 273 
7 1 0 0 1 0 1 275 
4 4 0 0 1 0 1 275 
5 3 0 0 3 0 1 276 
7 1 0 0 3 0 2 283 277 
1 3 0 0 4 0 1 278 
7 5 0 0 1 0 1 279 
8 3 0 0 4 0 1 280 
1 2 0 0 2 0 1 282 
9 1 0 0 1 0 1 283 
10 5 0 0 1 0 1 285 
6 1 0 0 1 0 1 285 
2 2 0 0 2 0 1 285 
0 0 0 0 0 0 1 424 
0 0 0 0 0 0 2 287 291 
6 0 1 0 0 1 1 288 
1 0 5 0 0 2 1 289 
1 0 1 0 0 2 1 290 
2 0 1 0 0 2 2 295 292 
6 0 2 0 0 1 2 295 292 
1 0 1 0 0 2 1 293 
2 0 1 0 0 1 1 294 
3 0 3 0 0 1 2 301 296 
1 0 2 0 0 1 1 296 
8 0 1 0 0 2 1 297 
3 0 5 0 0 5 2 300 298 
7 0 4 0 0 5 1 299 
7 0 4 0 0 4 2 306 302 
10 0 4 0 0 2 2 306 303 
4 0 2 0 0 3 1 302 
7 0 3 0 0 3 1 303 
5 0 4 0 0 4 1 304 
8 0 1 0 0 3 1 305 
8 0 2 0 0 2 1 307 
9 0 3 0 0 4 1 307 
0 0 0 0 0 0 1 424 
0 0 0 0 0 0 1 309 
10 0 0 1 0 0 2 312 310 
6 0 0 3 0 0 1 311 
9 0 0 4 0 0 2 314 313 
8 0 0 2 0 0 1 313 
1 0 0 3 0 0 2 316 315 
8 0 0 1 0 0 2 316 315 
4 0 0 1 0 0 1 317 
10 0 0 4 0 0 1 317 
2 0 0 4 0 0 1 318 
2 0 0 2 0 0 1 319 
0 0 0 0 0 0 5 364 376 388 400 412 
0 0 0 0 0 0 1 321 
7 0 1 1 0 0 2 324 322 
10 0 1 1 0 0 1 323 
4 0 3 4 0 0 1 325 
2 0 3 3 0 0 1 325 
4 0 2 2 0 0 1 326 
8 0 3 2 0 0 1 327 
5 0 5 4 0 0 2 329 328 
1 0 3 2 0 0 1 330 
4 0 4 2 0 0 1 330 
9 0 2 2 0 0 2 332 331 
4 0 2 3 0 0 2 335 333 
10 0 4 3 0 0 2 335 334 
9 0 1 3 0 0 1 334 
9 0 3 2 0 0 2 337 336 
8 0 3 4 0 0 2 337 336 
3 0 1 4 0 0 1 338 
4 0 3 2 0 0 1 338 
10 0 1 3 0 0 1 339 
9 0 4 2 0 0 1 340 
6 0 1 1 0 0 1 341 
0 0 0 0 0 0 1 424 
0 0 0 0 0 0 3 343 347 350 
9 0 0 1 0 1 1 344 
2 0 0 3 0 3 1 345 
1 0 0 3 0 3 1 346 
10 0 0 2 0 5 1 348 
2 0 0 1 0 2 3 355 354 351 
3 0 0 4 0 2 2 355 349 
1 0 0 1 0 5 1 351 
3 0 0 2 0 3 1 351 
8 0 0 2 0 1 1 352 
5 0 0 2 0 2 1 353 
9 0 0 2 0 1 2 362 356 
10 0 0 3 0 2 2 362 356 
10 0 0 2 0 1 1 356 
2 0 0 4 0 3 1 357 
9 0 0 3 0 2 1 358 
10 0 0 5 0 2 1 359 
2 0 0 4 0 3 1 360 
4 0 0 1 0 4 1 361 
10 0 0 3 0 2 1 363 
10 0 0 2 0 3 1 363 
0 0 0 0 0 0 1 424 
0 0 0 0 0 0 1 365 
7 0 0 1 0 0 1 366 
8 0 0 1 0 0 2 374 367 
2 0 0 4 0 0 2 373 368 
1 0 0 3 0 0 2 372 369 
10 0 0 2 0 0 1 370 
2 0 0 1 0 0 1 371 
5 0 0 3 0 0 1 375 
6 0 0 2 0 0 1 375 
2 0 0 7 0 0 1 375 
2 0 0 1 0 0 1 375 
0 0 0 0 0 0 1 424 
0 0 0 0 0 0 2 377 380 
1 1 0 0 0 0 1 378 
6 2 0 0 0 0 1 379 
3 2 0 0 0 0 3 386 385 381 
5 2 0 0 0 0 2 385 382 
2 1 0 0 0 0 1 382 
5 5 0 0 0 0 1 383 
8 3 0 0 0 0 1 384 
9 1 0 0 0 0 1 387 
8 6 0 0 0 0 1 387 
6 2 0 0 0 0 1 387 
0 0 0 0 0 0 1 424 
0 0 0 0 0 0 2 389 396 
4 1 0 0 0 0 1 390 
3 4 0 0 0 0 1 391 
4 1 0 0 0 0 2 394 392 
4 5 0 0 0 0 1 393 
4 2 0 0 0 0 1 395 
8 2 0 0 0 0 1 395 
6 2 0 0 0 0 2 398 397 
5 3 0 0 0 0 1 397 
6 4 0 0 0 0 1 399 
6 1 0 0 0 0 1 399 
0 0 0 0 0 0 1 424 
0 0 0 0 0 0 2 401 406 
4 0 0 0 1 0 2 410 402 
6 0 0 0 3 0 1 403 
6 0 0 0 3 0 1 404 
6 0 0 0 4 0 1 405 
10 0 0 0 3 0 2 409 407 
1 0 0 0 4 0 2 409 408 
1 0 0 0 1 0 1 408 
4 0 0 0 2 0 1 411 
1 0 0 0 3 0 1 411 
6 0 0 0 1 0 1 411 
0 0 0 0 0 0 1 424 
0 0 0 0 0 0 2 413 414 
4 0 1 0 0 0 3 418 417 415 
7 0 2 0 0 0 3 418 417 416 
7 0 4 0 0 0 1 416 
9 0 1 0 0 0 1 419 
6 0 2 0 0 0 1 419 
4 0 4 0 0 0 1 419 
9 0 2 0 0 0 1 420 
9 0 2 0 0 0 1 421 
10 0 3 0 0 0 1 422 
2 0 4 0 0 0 1 423 
0 0 0 0 0 0 1 424 
0 0 0 0 0 0 0 
